
(set-logic HORN)
(declare-fun zero_53 () Int)
(declare-fun succ_52 (Int) Int)
(declare-fun diseqInt (Int Int) Bool)
(declare-fun p_149 (Int Int) Bool)
(declare-fun iszero_52 (Int) Bool)
(declare-fun issucc_52 (Int) Bool)
(assert (forall ((x_25774 Int))
	(p_149 x_25774 (succ_52 x_25774))))
(assert (iszero_52 zero_53))
(assert (forall ((x_25776 Int))
	(issucc_52 (succ_52 x_25776))))
(assert (forall ((x_25777 Int))
	(diseqInt zero_53 (succ_52 x_25777))))
(assert (forall ((x_25778 Int))
	(diseqInt (succ_52 x_25778) zero_53)))
(assert (forall ((x_25779 Int) (x_25780 Int))
	(=> (diseqInt x_25779 x_25780) (diseqInt (succ_52 x_25779) (succ_52 x_25780)))))
(declare-datatypes ((Bin_7 0)) (((One_7) (ZeroAnd_7 (projZeroAnd_14 Bin_7)) (OneAnd_7 (projOneAnd_14 Bin_7)))))
(declare-fun diseqBin_7 (Bin_7 Bin_7) Bool)
(declare-fun projZeroAnd_15 (Bin_7 Bin_7) Bool)
(declare-fun projOneAnd_15 (Bin_7 Bin_7) Bool)
(declare-fun isOne_7 (Bin_7) Bool)
(declare-fun isZeroAnd_7 (Bin_7) Bool)
(declare-fun isOneAnd_7 (Bin_7) Bool)
(assert (forall ((x_25782 Bin_7))
	(projZeroAnd_15 x_25782 (ZeroAnd_7 x_25782))))
(assert (forall ((x_25784 Bin_7))
	(projOneAnd_15 x_25784 (OneAnd_7 x_25784))))
(assert (isOne_7 One_7))
(assert (forall ((x_25786 Bin_7))
	(isZeroAnd_7 (ZeroAnd_7 x_25786))))
(assert (forall ((x_25787 Bin_7))
	(isOneAnd_7 (OneAnd_7 x_25787))))
(assert (forall ((x_25788 Bin_7))
	(diseqBin_7 One_7 (ZeroAnd_7 x_25788))))
(assert (forall ((x_25789 Bin_7))
	(diseqBin_7 One_7 (OneAnd_7 x_25789))))
(assert (forall ((x_25790 Bin_7))
	(diseqBin_7 (ZeroAnd_7 x_25790) One_7)))
(assert (forall ((x_25791 Bin_7))
	(diseqBin_7 (OneAnd_7 x_25791) One_7)))
(assert (forall ((x_25792 Bin_7) (x_25793 Bin_7))
	(diseqBin_7 (ZeroAnd_7 x_25792) (OneAnd_7 x_25793))))
(assert (forall ((x_25794 Bin_7) (x_25795 Bin_7))
	(diseqBin_7 (OneAnd_7 x_25794) (ZeroAnd_7 x_25795))))
(assert (forall ((x_25796 Bin_7) (x_25797 Bin_7))
	(=> (diseqBin_7 x_25796 x_25797) (diseqBin_7 (ZeroAnd_7 x_25796) (ZeroAnd_7 x_25797)))))
(assert (forall ((x_25798 Bin_7) (x_25799 Bin_7))
	(=> (diseqBin_7 x_25798 x_25799) (diseqBin_7 (OneAnd_7 x_25798) (OneAnd_7 x_25799)))))
(declare-fun s_257 (Bin_7 Bin_7) Bool)
(assert (forall ((x_25698 Bin_7) (ys_93 Bin_7))
	(=> (s_257 x_25698 ys_93) (s_257 (ZeroAnd_7 x_25698) (OneAnd_7 ys_93)))))
(assert (forall ((xs_309 Bin_7))
	(s_257 (OneAnd_7 xs_309) (ZeroAnd_7 xs_309))))
(assert (s_257 (ZeroAnd_7 One_7) One_7))
(declare-fun plus_52 (Bin_7 Bin_7 Bin_7) Bool)
(assert (forall ((x_25702 Bin_7) (x_25703 Bin_7) (ys_94 Bin_7) (x_25679 Bin_7))
	(=> (and (plus_52 x_25702 x_25679 ys_94) (s_257 x_25703 x_25702)) (plus_52 (ZeroAnd_7 x_25703) (OneAnd_7 x_25679) (OneAnd_7 ys_94)))))
(assert (forall ((x_25705 Bin_7) (zs_26 Bin_7) (x_25679 Bin_7))
	(=> (plus_52 x_25705 x_25679 zs_26) (plus_52 (OneAnd_7 x_25705) (OneAnd_7 x_25679) (ZeroAnd_7 zs_26)))))
(assert (forall ((x_25706 Bin_7) (x_25679 Bin_7))
	(=> (s_257 x_25706 (OneAnd_7 x_25679)) (plus_52 x_25706 (OneAnd_7 x_25679) One_7))))
(assert (forall ((x_25709 Bin_7) (xs_310 Bin_7) (z_949 Bin_7))
	(=> (plus_52 x_25709 z_949 xs_310) (plus_52 (OneAnd_7 x_25709) (ZeroAnd_7 z_949) (OneAnd_7 xs_310)))))
(assert (forall ((x_25711 Bin_7) (ys_95 Bin_7) (z_949 Bin_7))
	(=> (plus_52 x_25711 z_949 ys_95) (plus_52 (ZeroAnd_7 x_25711) (ZeroAnd_7 z_949) (ZeroAnd_7 ys_95)))))
(assert (forall ((x_25712 Bin_7) (z_949 Bin_7))
	(=> (s_257 x_25712 (ZeroAnd_7 z_949)) (plus_52 x_25712 (ZeroAnd_7 z_949) One_7))))
(assert (forall ((x_25714 Bin_7) (y_975 Bin_7))
	(=> (s_257 x_25714 y_975) (plus_52 x_25714 One_7 y_975))))
(declare-fun times_10 (Bin_7 Bin_7 Bin_7) Bool)
(assert (forall ((x_25716 Bin_7) (x_25717 Bin_7) (xs_311 Bin_7) (y_976 Bin_7))
	(=> (and (times_10 x_25717 xs_311 y_976) (plus_52 x_25716 (ZeroAnd_7 x_25717) y_976)) (times_10 x_25716 (OneAnd_7 xs_311) y_976))))
(assert (forall ((x_25720 Bin_7) (xs_312 Bin_7) (y_976 Bin_7))
	(=> (times_10 x_25720 xs_312 y_976) (times_10 (ZeroAnd_7 x_25720) (ZeroAnd_7 xs_312) y_976))))
(assert (forall ((x_25721 Bin_7))
	(times_10 x_25721 One_7 x_25721)))
(declare-fun plus_53 (Int Int Int) Bool)
(assert (forall ((x_25723 Int) (z_950 Int) (y_977 Int))
	(=> (plus_53 x_25723 z_950 y_977) (plus_53 (succ_52 x_25723) (succ_52 z_950) y_977))))
(assert (forall ((x_25724 Int))
	(plus_53 x_25724 zero_53 x_25724)))
(declare-fun times_11 (Int Int Int) Bool)
(assert (forall ((x_25725 Int) (x_25726 Int) (z_951 Int) (y_978 Int))
	(=> (and (times_11 x_25726 z_951 y_978) (plus_53 x_25725 y_978 x_25726)) (times_11 x_25725 (succ_52 z_951) y_978))))
(assert (forall ((y_978 Int))
	(times_11 zero_53 zero_53 y_978)))
(declare-fun toNat_4 (Int Bin_7) Bool)
(assert (forall ((x_25729 Int) (x_25730 Int) (x_25731 Int) (x_25732 Int) (ys_96 Bin_7))
	(=> (and (toNat_4 x_25730 ys_96) (plus_53 x_25731 (succ_52 zero_53) x_25730) (toNat_4 x_25732 ys_96) (plus_53 x_25729 x_25731 x_25732)) (toNat_4 x_25729 (OneAnd_7 ys_96)))))
(assert (forall ((x_25734 Int) (x_25735 Int) (x_25736 Int) (xs_313 Bin_7))
	(=> (and (toNat_4 x_25735 xs_313) (toNat_4 x_25736 xs_313) (plus_53 x_25734 x_25735 x_25736)) (toNat_4 x_25734 (ZeroAnd_7 xs_313)))))
(assert (toNat_4 (succ_52 zero_53) One_7))
(assert (forall ((x_25739 Bin_7) (x_25740 Int) (x_25741 Int) (x_25742 Int) (x_25743 Int) (x_25684 Bin_7) (y_979 Bin_7))
	(=> (and true (diseqInt x_25740 x_25743) (times_10 x_25739 x_25684 y_979) (toNat_4 x_25740 x_25739) (toNat_4 x_25741 x_25684) (toNat_4 x_25742 y_979) (times_11 x_25743 x_25741 x_25742)) false)))
(assert (forall ((x_25744 Int) (x_25745 Int) (x_25746 Int) (x_25747 Int) (x_25685 Int) (y_980 Int) (z_952 Int))
	(=> (and true (diseqInt x_25745 x_25747) (times_11 x_25744 y_980 z_952) (times_11 x_25745 x_25685 x_25744) (times_11 x_25746 x_25685 y_980) (times_11 x_25747 x_25746 z_952)) false)))
(assert (forall ((x_25748 Int) (x_25749 Int) (x_25750 Int) (x_25751 Int) (x_25686 Int) (y_981 Int) (z_953 Int))
	(=> (and true (diseqInt x_25749 x_25751) (plus_53 x_25748 y_981 z_953) (plus_53 x_25749 x_25686 x_25748) (plus_53 x_25750 x_25686 y_981) (plus_53 x_25751 x_25750 z_953)) false)))
(assert (forall ((x_25752 Int) (x_25753 Int) (x_25687 Int) (y_982 Int))
	(=> (and true (diseqInt x_25752 x_25753) (times_11 x_25752 x_25687 y_982) (times_11 x_25753 y_982 x_25687)) false)))
(assert (forall ((x_25754 Int) (x_25755 Int) (x_25688 Int) (y_983 Int))
	(=> (and true (diseqInt x_25754 x_25755) (plus_53 x_25754 x_25688 y_983) (plus_53 x_25755 y_983 x_25688)) false)))
(assert (forall ((x_25756 Int) (x_25757 Int) (x_25758 Int) (x_25759 Int) (x_25760 Int) (x_25689 Int) (y_984 Int) (z_954 Int))
	(=> (and true (diseqInt x_25757 x_25760) (plus_53 x_25756 y_984 z_954) (times_11 x_25757 x_25689 x_25756) (times_11 x_25758 x_25689 y_984) (times_11 x_25759 x_25689 z_954) (plus_53 x_25760 x_25758 x_25759)) false)))
(assert (forall ((x_25761 Int) (x_25762 Int) (x_25763 Int) (x_25764 Int) (x_25765 Int) (x_25690 Int) (y_985 Int) (z_955 Int))
	(=> (and true (diseqInt x_25762 x_25765) (plus_53 x_25761 x_25690 y_985) (times_11 x_25762 x_25761 z_955) (times_11 x_25763 x_25690 z_955) (times_11 x_25764 y_985 z_955) (plus_53 x_25765 x_25763 x_25764)) false)))
(assert (forall ((x_25766 Int) (x_25691 Int))
	(=> (and true (diseqInt x_25766 x_25691) (times_11 x_25766 x_25691 (succ_52 zero_53))) false)))
(assert (forall ((x_25767 Int) (x_25692 Int))
	(=> (and true (diseqInt x_25767 x_25692) (times_11 x_25767 (succ_52 zero_53) x_25692)) false)))
(assert (forall ((x_25768 Int) (x_25693 Int))
	(=> (and true (diseqInt x_25768 x_25693) (plus_53 x_25768 x_25693 zero_53)) false)))
(assert (forall ((x_25769 Int) (x_25694 Int))
	(=> (and true (diseqInt x_25769 x_25694) (plus_53 x_25769 zero_53 x_25694)) false)))
(assert (forall ((x_25770 Int) (x_25695 Int))
	(=> (and true (diseqInt x_25770 zero_53) (times_11 x_25770 x_25695 zero_53)) false)))
(assert (forall ((x_25771 Int) (x_25696 Int))
	(=> (and true (diseqInt x_25771 zero_53) (times_11 x_25771 zero_53 x_25696)) false)))
(check-sat)
